100
128
55
24
52
43
47
31
7
24
47
51
47
50
10
13
31
14
32
58
36
28
30
43
54
30
60
40
28
39
40
11
6
38
21
8
61
30
1
43
19
22
20
59
37
37
63
17
28
21
22
12
61
19
51
45
50
41
23
31
58
51
64
57
37
17
18
19
55
46
27
30
35
1
51
39
22
59
20
51
20
56
48
22
63
57
53
26
20
24
33
28
63
38
33
61
64
57
30
47
34
13